Set parameter TSPort to value 51199
Set parameter TokenServer to value "open-license1.lanl.gov"
Set parameter TimeLimit to value 4096
Set parameter Threads to value 1
Gurobi Optimizer version 10.0.3 build v10.0.3rc0 (linux64)

CPU model: Intel(R) Xeon(R) CPU E5-2695 v4 @ 2.10GHz, instruction set [SSE2|AVX|AVX2]
Thread count: 36 physical cores, 72 logical processors, using up to 1 threads

Optimize a model with 0 rows, 3447 columns and 0 nonzeros
Model fingerprint: 0x1544589c
Model has 16006 quadratic objective terms
Variable types: 0 continuous, 3447 integer (3447 binary)
Coefficient statistics:
  Matrix range     [0e+00, 0e+00]
  Objective range  [2e+00, 3e+01]
  QObjective range [8e+00, 8e+00]
  Bounds range     [1e+00, 1e+00]
  RHS range        [0e+00, 0e+00]
Found heuristic solution: objective 0.0000000
Found heuristic solution: objective -5848.000000
Found heuristic solution: objective -21510.00000
Found heuristic solution: objective -21582.00000
Presolve removed 0 rows and 2 columns (presolve time = 7s) ...
Presolve removed 0 rows and 2 columns
Presolve time: 7.12s
Presolved: 16004 rows, 19449 columns, 48012 nonzeros
Variable types: 0 continuous, 19449 integer (19449 binary)

Root simplex log...

Iteration    Objective       Primal Inf.    Dual Inf.      Time
       0   -3.1992000e+04   6.251000e+03   0.000000e+00     11s
    4663   -3.0014000e+04   0.000000e+00   0.000000e+00     12s

Root relaxation: objective -3.001400e+04, 4663 iterations, 1.06 seconds (0.03 work units)
Total elapsed time = 12.04s

    Nodes    |    Current Node    |     Objective Bounds      |     Work
 Expl Unexpl |  Obj  Depth IntInf | Incumbent    BestBd   Gap | It/Node Time

     0     0 -30014.000    0 3445 -21582.000 -30014.000  39.1%     -   15s
     0     0 -28263.500    0 4289 -21582.000 -28263.500  31.0%     -   26s
     0     0 -27818.500    0 4551 -21582.000 -27818.500  28.9%     -   31s
     0     0 -27803.000    0 4557 -21582.000 -27803.000  28.8%     -   32s
     0     0 -27475.300    0 4790 -21582.000 -27475.300  27.3%     -   44s
     0     0 -27475.300    0 4742 -21582.000 -27475.300  27.3%     -   54s
     0     2 -27475.300    0 4740 -21582.000 -27475.300  27.3%     -   71s
    11    13 -27423.300    6 4778 -21582.000 -27465.300  27.3%   371   75s
    25    27 -27350.300   13 4873 -21582.000 -27465.300  27.3%   210   80s
    38    40 -27293.300   19 4911 -21582.000 -27465.300  27.3%   172   85s
    49    51 -27250.300   25 4979 -21582.000 -27465.300  27.3%   160   90s
    63    65 -27184.300   32 5038 -21582.000 -27465.300  27.3%   142   95s
    76    78 -27122.375   38 5088 -21582.000 -27465.300  27.3%   136  100s
    90    92 -27056.375   45 5143 -21582.000 -27465.300  27.3%   125  105s
   105   107 -26980.375   53 5213 -21582.000 -27465.300  27.3%   119  110s
   118   120 -26924.375   59 5264 -21582.000 -27465.300  27.3%   115  115s
   132   134 -26864.375   66 5319 -21582.000 -27465.300  27.3%   112  120s
   149   151 -26774.375   75 5392 -21582.000 -27465.300  27.3%   107  125s
   162   164 -26717.375   81 5400 -21582.000 -27465.300  27.3%   105  130s
   178   180 -26662.375   89 5445 -21582.000 -27465.300  27.3%   103  135s
   194   196 -26600.375   97 5495 -21582.000 -27465.300  27.3%   100  140s
   208   210 -26540.375  104 5513 -21582.000 -27465.300  27.3%  97.9  145s
   224   226 -26472.375  112 5572 -21582.000 -27465.300  27.3%  96.0  150s
   239   241 -26404.375  120 5598 -21582.000 -27465.300  27.3%  94.0  155s
   253   255 -26343.375  127 5654 -21582.000 -27465.300  27.3%  94.1  160s
   269   271 -26273.375  135 5689 -21582.000 -27465.300  27.3%  93.0  165s
   284   286 -26211.375  142 5727 -21582.000 -27465.300  27.3%  92.2  170s
   298   300 -26148.000  149 5756 -21582.000 -27465.300  27.3%  91.1  175s
   316   318 -26080.000  158 5791 -21582.000 -27465.300  27.3%  89.0  180s
   331   333 -26016.000  166 5821 -21582.000 -27465.300  27.3%  88.2  185s
   345   347 -25962.000  173 5852 -21582.000 -27465.300  27.3%  88.2  190s
   358   360 -25910.000  179 5909 -21582.000 -27465.300  27.3%  88.4  195s
   374   376 -25842.000  187 5970 -21582.000 -27465.300  27.3%  87.3  200s
   387   389 -25787.000  194 5991 -21582.000 -27465.300  27.3%  86.7  205s
   403   405 -25715.000  202 6026 -21582.000 -27465.300  27.3%  86.2  210s
   419   421 -25652.000  210 6081 -21582.000 -27465.300  27.3%  84.9  215s
   434   436 -25597.000  217 6119 -21582.000 -27465.300  27.3%  84.0  220s
   452   454 -25521.000  226 6191 -21582.000 -27465.300  27.3%  83.2  225s
   465   467 -25463.000  233 6239 -21582.000 -27465.300  27.3%  82.7  230s
   476   478 -25417.000  238 6254 -21582.000 -27465.300  27.3%  82.5  235s
   489   491 -25362.000  245 6263 -21582.000 -27465.300  27.3%  82.2  240s
   506   508 -25287.000  253 6286 -21582.000 -27465.300  27.3%  81.1  245s
   519   521 -25246.000  260 6329 -21582.000 -27465.300  27.3%  80.6  250s
   534   536 -25199.000  267 6370 -21582.000 -27465.300  27.3%  80.7  255s
   546   548 -25160.000  273 6390 -21582.000 -27465.300  27.3%  80.8  260s
   562   564 -25108.000  281 6433 -21582.000 -27465.300  27.3%  80.6  265s
   574   576 -25058.000  287 6454 -21582.000 -27465.300  27.3%  80.3  270s
   587   589 -25009.000  294 6474 -21582.000 -27465.300  27.3%  80.4  275s
   600   602 -24963.000  300 6467 -21582.000 -27465.300  27.3%  80.1  280s
   617   619 -24901.000  309 6455 -21582.000 -27465.300  27.3%  79.7  285s
   630   632 -24851.000  315 6473 -21582.000 -27465.300  27.3%  79.6  290s
   646   648 -24790.000  323 6478 -21582.000 -27465.300  27.3%  79.0  295s
H  648   648                    -21584.00000 -27465.300  27.2%  78.9  298s
   652   654 -24762.000  326 6480 -21584.000 -27465.300  27.2%  78.9  300s
   664   666 -24731.000  332 6481 -21584.000 -27465.300  27.2%  78.6  305s
   677   679 -24683.000  339 6510 -21584.000 -27465.300  27.2%  78.0  310s
   692   694 -24629.000  346 6513 -21584.000 -27465.300  27.2%  77.8  315s
   706   708 -24578.000  353 6519 -21584.000 -27465.300  27.2%  77.4  320s
   721   723 -24514.500  361 6556 -21584.000 -27465.300  27.2%  77.2  325s
   733   735 -24472.500  367 6575 -21584.000 -27465.300  27.2%  76.9  330s
   751   753 -24409.500  376 6599 -21584.000 -27465.300  27.2%  76.5  335s
   758   760 -24394.000  379 6582 -21584.000 -27465.300  27.2%  76.3  340s
   773   775 -24330.000  387 6615 -21584.000 -27465.300  27.2%  76.2  345s
   787   789 -24288.000  394 6619 -21584.000 -27465.300  27.2%  75.9  350s
   804   806 -24240.000  402 6607 -21584.000 -27465.300  27.2%  75.3  355s
   810   812 -24217.000  405 6608 -21584.000 -27465.300  27.2%  75.1  392s
   821   823 -24177.000  411 6620 -21584.000 -27465.300  27.2%  74.7  395s
   838   840 -24122.000  419 6623 -21584.000 -27465.300  27.2%  74.2  400s
   849   851 -24089.000  425 6641 -21584.000 -27465.300  27.2%  73.8  406s
   863   865 -24033.000  432 6658 -21584.000 -27465.300  27.2%  73.5  410s
   880   882 -23978.000  440 6671 -21584.000 -27465.300  27.2%  73.1  415s
   896   898 -23913.000  448 6688 -21584.000 -27465.300  27.2%  72.7  420s
   909   911 -23869.000  455 6688 -21584.000 -27465.300  27.2%  72.4  458s
   910   912 -23867.000  455 6696 -21584.000 -27465.300  27.2%  72.4  460s
   927   929 -23806.000  464 6687 -21584.000 -27465.300  27.2%  72.1  465s
   939   941 -23765.000  470 6695 -21584.000 -27465.300  27.2%  71.8  470s
   956   958 -23713.000  478 6690 -21584.000 -27465.300  27.2%  71.3  475s
   966   968 -23677.000  483 6725 -21584.000 -27465.300  27.2%  71.2  480s
   984   986 -23611.000  492 6737 -21584.000 -27465.300  27.2%  70.8  485s
   991   993 -23585.000  496 6738 -21584.000 -27465.300  27.2%  70.8  520s
  1009  1011 -23521.000  505 6779 -21584.000 -27465.300  27.2%  70.6  525s
  1028  1030 -23458.000  514 6784 -21584.000 -27465.300  27.2%  70.3  530s
  1046  1048 -23393.000  523 6797 -21584.000 -27465.300  27.2%  70.0  535s
  1064  1066 -23340.500  532 6800 -21584.000 -27465.300  27.2%  69.8  540s
  1078  1080 -23310.500  539 6806 -21584.000 -27465.300  27.2%  69.5  545s
  1094  1096 -23266.500  547 6822 -21584.000 -27465.300  27.2%  69.4  550s
  1115  1117 -23206.000  558 6827 -21584.000 -27465.300  27.2%  69.0  555s
  1133  1135 -23153.000  567 6855 -21584.000 -27465.300  27.2%  68.8  560s
  1150  1152 -23102.000  576 6895 -21584.000 -27465.300  27.2%  68.6  565s
  1167  1169 -23058.000  584 6919 -21584.000 -27465.300  27.2%  68.3  570s
H 1170  1170                    -21592.00000 -27465.300  27.2%  68.2  571s
  1183  1185 -23010.500  592 6946 -21592.000 -27465.300  27.2%  68.0  575s
  1202  1204 -22950.500  602 6937 -21592.000 -27465.300  27.2%  67.8  580s
  1220  1222 -22911.500  611 6915 -21592.000 -27465.300  27.2%  67.5  585s
H 1222  1222                    -21600.00000 -27465.300  27.2%  67.4  585s
  1237  1239 -22878.500  619 6909 -21600.000 -27465.300  27.2%  67.2  590s
  1253  1255 -22838.000  627 6908 -21600.000 -27465.300  27.2%  67.2  595s
  1271  1273 -22803.500  636 6820 -21600.000 -27465.300  27.2%  66.9  600s
  1288  1290 -22765.500  645 6815 -21600.000 -27465.300  27.2%  66.6  605s
H 1300  1300                    -21606.00000 -27465.300  27.1%  66.5  608s
  1305  1307 -22726.500  653 6805 -21606.000 -27465.300  27.1%  66.4  610s
  1323  1325 -22692.500  663 6817 -21606.000 -27465.300  27.1%  66.2  615s
  1343  1345 -22662.500  673 6776 -21606.000 -27465.300  27.1%  65.7  620s
  1364  1366 -22660.500  684 6706 -21606.000 -27465.300  27.1%  65.1  625s
H 1378  1378                    -21612.00000 -27465.300  27.1%  64.9  629s
  1381  1383 -22616.500  693 6692 -21612.000 -27465.300  27.1%  65.0  630s
  1399  1401 -22559.500  703 6658 -21612.000 -27465.300  27.1%  64.9  635s
  1416  1418 -22515.500  711 6672 -21612.000 -27465.300  27.1%  64.8  640s
H 1430  1430                    -21622.00000 -27465.300  27.0%  64.6  644s
  1432  1434 -22477.500  719 6660 -21622.000 -27465.300  27.0%  64.7  645s
  1448  1450 -22433.500  727 6629 -21622.000 -27465.300  27.0%  64.6  650s
H 1456  1456                    -21628.00000 -27465.300  27.0%  64.5  652s
  1464  1466 -22386.500  736 6629 -21628.000 -27465.300  27.0%  64.4  655s
H 1482  1482                    -21630.00000 -27465.300  27.0%  64.3  660s
  1497  1499 -22296.500  752 6619 -21630.000 -27465.300  27.0%  64.3  665s
  1514  1516 -22251.500  761 6599 -21630.000 -27465.300  27.0%  64.1  670s
  1533  1535 -22218.500  770 6592 -21630.000 -27465.300  27.0%  63.8  675s
H 1534  1534                    -21644.00000 -27465.300  26.9%  63.8  675s
  1548  1550 -22176.000  778 6561 -21644.000 -27465.300  26.9%  63.7  680s
H 1560  1560                    -21654.00000 -27465.300  26.8%  63.5  684s
  1565  1567 -22139.000  787 6569 -21654.000 -27465.300  26.8%  63.4  685s
  1585  1587 -22094.000  797 6502 -21654.000 -27465.300  26.8%  63.2  690s
H 1586  1586                    -21656.00000 -27465.300  26.8%  63.1  691s
  1600  1602 -22068.000  805 6493 -21656.000 -27465.300  26.8%  63.0  695s
H 1612  1612                    -21662.00000 -27465.300  26.8%  62.7  699s
  1615  1617 -22036.000  813 6448 -21662.000 -27465.300  26.8%  62.7  700s
  1635  1637 -21986.000  823 6445 -21662.000 -27465.300  26.8%  62.5  705s
H 1638  1638                    -21666.00000 -27465.300  26.8%  62.4  706s
  1650  1652 -21949.000  830 6434 -21666.000 -27465.300  26.8%  62.2  710s
H 1664  1664                    -21686.00000 -27465.300  26.6%  61.9  714s
  1668  1670 -21913.000  839 6440 -21686.000 -27465.300  26.6%  61.9  715s
  1688  1690 -21877.000  849 6390 -21686.000 -27465.300  26.6%  61.6  720s
  1705  1707 -21842.000  858 6371 -21686.000 -27465.300  26.6%  61.3  725s
H 1716  1716                    -21694.00000 -27465.300  26.6%  61.2  729s
  1720  1722 -21804.000  866 6331 -21694.000 -27465.300  26.6%  61.2  730s
  1739  1741 -21772.000  875 6304 -21694.000 -27465.300  26.6%  60.9  735s
H 1742  1742                    -21704.00000 -27465.300  26.5%  60.8  737s
  1751  1753 -21750.000  881 6297 -21704.000 -27465.300  26.5%  60.7  740s
H 1768  1768                    -21706.00000 -27465.300  26.5%  60.5  745s
H 1794  1762                    -21722.00000 -27465.300  26.4%  60.0  751s
H 1801  1758                    -21724.00000 -27465.300  26.4%  59.9  784s
  1802  1759 -26211.375  143 8002 -21724.000 -27465.300  26.4%  59.9  801s
  1804  1760 -23978.000  441 3445 -21724.000 -27465.300  26.4%  59.8  836s
  1805  1761 -22669.500  670 4293 -21724.000 -27465.300  26.4%  59.8  842s
  1806  1762 -25349.000  247 5004 -21724.000 -27017.000  24.4%  59.8  851s
  1807  1762 -22477.500  720 5513 -21724.000 -26325.733  21.2%  59.7  869s
  1808  1763 -23091.000  578 5790 -21724.000 -26075.760  20.0%  59.7  917s
  1809  1764 -26026.902   50 6068 -21724.000 -26026.902  19.8%  59.7  945s
  1810  1764 -24879.000  313 6020 -21724.000 -26011.082  19.7%  59.6  956s
  1811  1765 -22676.500  669 6059 -21724.000 -26003.593  19.7%  59.6  963s
  1812  1766 -22162.750  782 6065 -21724.000 -26002.092  19.7%  59.6  965s
  1814  1767 -22680.500  668 6106 -21724.000 -26001.836  19.7%  59.5  978s
  1815  1768 -25541.982    2 6505 -21724.000 -25541.982  17.6%  59.5 1269s
  1816  1768 -24620.000  349 7122 -21724.000 -25401.903  16.9%  59.4 1646s
  1817  1769 -22302.500  752 7310 -21724.000 -25357.969  16.7%  59.4 1960s
  1818  1770 -22354.500  742 7477 -21724.000 -25345.871  16.7%  59.4 2093s
  1819  1770 -22211.500  772 7556 -21724.000 -25343.130  16.7%  59.3 2151s
  1820  1771 -25341.783   37 7617 -21724.000 -25341.783  16.7%  59.3 2193s
  1821  1772 -22013.000  818 7728 -21724.000 -25341.478  16.7%  59.3 2208s
  1822  1772 -25341.326   38 7797 -21724.000 -25341.326  16.7%  59.2 2219s
  1823  1773 -24891.000  312 7791 -21724.000 -25341.242  16.7%  59.2 2225s
  1825  1774 -23238.000  553 7832 -21724.000 -25341.234  16.7%  59.1 2247s
  1826  1775 -23159.000  567 8290 -21724.000 -24986.394  15.0%  59.1 3743s

Cutting planes:
  Gomory: 95
  MIR: 590
  Flow cover: 3118
  Zero half: 1830
  RLT: 591
  BQP: 1017

Explored 1826 nodes (439389 simplex iterations) in 4096.04 seconds (315.06 work units)
Thread count was 1 (of 72 available processors)

Solution count 10: -21724 -21722 -21706 ... -21654

Time limit reached
Best objective -2.172400000000e+04, best bound -2.498600000000e+04, gap 15.0157%

User-callback calls 48766, time in user-callback 2.76 sec

BQP_SOLUTION, 3447, 16006, -7716.000000, 4096.041337, 1, -1, 1, -1, 1, -1, -1, 1, 1, -1, 1, 1, 1, -1, 1, -1, -1, 1, -1, 1, -1, 1, 1, -1, 1, -1, 1, -1, 1, -1, -1, 1, -1, -1, 1, -1, -1, -1, -1, -1, -1, 1, -1, 1, 1, 1, 1, 1, -1, -1, -1, -1, -1, 1, -1, 1, -1, 1, -1, 1, -1, -1, 1, 1, 1, 1, -1, 1, 1, -1, 1, 1, -1, 1, -1, -1, -1, 1, -1, 1, 1, -1, -1, 1, -1, -1, -1, -1, -1, -1, -1, 1, 1, 1, -1, 1, -1, -1, -1, 1, -1, 1, -1, 1, 1, -1, 1, 1, 1, -1, -1, -1, -1, 1, -1, 1, 1, 1, -1, 1, -1, -1, -1, -1, -1, 1, 1, 1, 1, 1, 1, 1, 1, -1, -1, 1, -1, 1, 1, -1, 1, 1, -1, -1, -1, -1, 1, -1, 1, 1, -1, 1, 1, -1, 1, 1, -1, -1, -1, 1, 1, 1, 1, -1, 1, -1, -1, 1, -1, 1, -1, -1, 1, 1, 1, 1, 1, -1, 1, -1, -1, 1, -1, 1, 1, 1, 1, 1, -1, 1, -1, 1, -1, -1, 1, -1, -1, 1, 1, 1, -1, -1, -1, -1, -1, 1, -1, 1, 1, 1, 1, -1, 1, -1, 1, 1, -1, 1, 1, -1, 1, 1, 1, -1, -1, -1, -1, 1, 1, -1, 1, 1, 1, 1, 1, -1, 1, -1, 1, -1, 1, -1, 1, -1, 1, 1, 1, 1, -1, -1, -1, 1, 1, -1, 1, 1, 1, -1, 1, -1, 1, -1, -1, 1, 1, -1, 1, -1, 1, 1, 1, -1, -1, -1, -1, 1, -1, 1, 1, 1, 1, -1, 1, -1, -1, -1, -1, 1, 1, -1, 1, 1, -1, 1, -1, -1, 1, -1, -1, 1, -1, 1, 1, 1, -1, 1, -1, -1, -1, -1, 1, -1, -1, -1, 1, 1, 1, 1, -1, -1, 1, -1, 1, -1, -1, -1, 1, 1, -1, 1, -1, -1, -1, 1, -1, -1, 1, -1, 1, -1, 1, 1, 1, -1, -1, 1, -1, 1, -1, 1, 1, 1, -1, -1, 1, -1, -1, -1, 1, -1, -1, -1, 1, -1, -1, 1, -1, -1, -1, 1, 1, -1, 1, -1, 1, 1, -1, 1, -1, -1, -1, 1, 1, -1, -1, -1, -1, 1, -1, 1, -1, -1, 1, 1, -1, 1, -1, 1, -1, -1, 1, -1, -1, -1, -1, 1, 1, 1, 1, -1, -1, -1, 1, -1, 1, -1, -1, 1, -1, -1, -1, -1, 1, -1, 1, -1, 1, -1, 1, 1, -1, -1, -1, 1, -1, 1, -1, -1, 1, -1, 1, -1, -1, -1, -1, -1, -1, -1, 1, -1, -1, -1, 1, 1, -1, 1, -1, -1, -1, 1, 1, -1, 1, 1, 1, 1, -1, -1, -1, -1, 1, 1, -1, 1, 1, 1, 1, 1, -1, -1, -1, -1, -1, 1, 1, -1, 1, -1, 1, 1, -1, -1, -1, -1, 1, -1, 1, 1, 1, -1, 1, 1, -1, -1, -1, 1, -1, 1, 1, 1, 1, -1, 1, 1, -1, 1, -1, -1, -1, 1, -1, 1, -1, 1, 1, 1, -1, -1, -1, -1, 1, 1, 1, -1, 1, 1, 1, 1, 1, -1, -1, -1, -1, 1, 1, -1, 1, 1, 1, 1, 1, 1, -1, 1, -1, 1, -1, 1, 1, 1, -1, 1, 1, -1, -1, -1, -1, 1, 1, 1, 1, 1, -1, -1, 1, -1, -1, -1, 1, 1, -1, 1, 1, 1, -1, 1, -1, -1, 1, -1, 1, 1, 1, 1, -1, 1, 1, 1, 1, -1, 1, -1, 1, 1, 1, 1, 1, 1, 1, -1, 1, -1, 1, -1, 1, 1, 1, 1, -1, 1, 1, -1, 1, -1, -1, 1, 1, 1, -1, -1, 1, 1, 1, -1, 1, 1, 1, -1, -1, 1, -1, 1, 1, 1, 1, -1, 1, -1, 1, 1, 1, 1, -1, 1, 1, 1, -1, -1, 1, -1, 1, 1, 1, 1, -1, 1, 1, 1, 1, -1, -1, -1, 1, 1, -1, 1, 1, 1, 1, 1, 1, -1, -1, 1, -1, 1, 1, 1, 1, -1, 1, 1, 1, 1, -1, -1, 1, 1, 1, -1, 1, -1, 1, 1, -1, 1, -1, -1, 1, 1, -1, 1, -1, 1, 1, 1, 1, 1, -1, 1, 1, 1, -1, 1, -1, 1, 1, 1, 1, -1, -1, 1, 1, 1, -1, 1, 1, 1, 1, 1, 1, -1, 1, -1, 1, 1, 1, 1, -1, 1, -1, 1, 1, 1, -1, 1, 1, 1, 1, -1, 1, -1, 1, 1, 1, -1, 1, -1, 1, 1, 1, -1, 1, -1, 1, 1, -1, 1, -1, -1, 1, 1, 1, -1, -1, 1, -1, 1, 1, 1, -1, -1, 1, 1, 1, -1, -1, 1, 1, 1, 1, -1, -1, 1, 1, 1, 1, -1, -1, 1, -1, 1, -1, 1, -1, -1, -1, 1, 1, -1, -1, 1, -1, -1, 1, -1, 1, -1, 1, 1, 1, -1, -1, 1, -1, 1, -1, 1, -1, -1, 1, 1, 1, 1, -1, 1, 1, 1, 1, -1, 1, -1, 1, 1, 1, 1, -1, 1, 1, 1, 1, -1, 1, -1, 1, 1, 1, -1, 1, -1, 1, 1, -1, 1, -1, -1, 1, 1, 1, -1, -1, 1, -1, 1, -1, 1, -1, -1, 1, 1, 1, -1, 1, -1, 1, 1, -1, -1, -1, -1, 1, 1, 1, -1, -1, 1, 1, 1, -1, 1, -1, 1, 1, 1, 1, -1, 1, 1, 1, -1, -1, -1, -1, -1, 1, 1, -1, -1, 1, -1, 1, -1, -1, 1, 1, 1, -1, 1, 1, -1, 1, 1, -1, 1, -1, -1, 1, 1, 1, 1, 1, -1, 1, 1, 1, -1, 1, 1, 1, 1, 1, 1, 1, -1, -1, 1, 1, -1, 1, -1, 1, -1, 1, 1, 1, -1, -1, -1, 1, -1, -1, 1, 1, 1, 1, -1, 1, 1, -1, 1, 1, -1, -1, -1, 1, -1, 1, 1, 1, 1, -1, 1, 1, -1, 1, -1, 1, -1, 1, 1, 1, 1, 1, 1, -1, 1, -1, 1, 1, -1, -1, 1, -1, 1, 1, 1, 1, -1, -1, 1, 1, 1, 1, 1, -1, -1, 1, 1, 1, -1, -1, 1, 1, 1, 1, 1, -1, -1, 1, 1, 1, -1, -1, 1, 1, -1, 1, 1, 1, -1, 1, 1, 1, 1, -1, -1, 1, 1, 1, 1, 1, -1, -1, 1, -1, -1, -1, -1, 1, 1, 1, -1, 1, -1, 1, 1, 1, 1, -1, -1, 1, 1, 1, -1, 1, -1, -1, 1, 1, 1, -1, 1, -1, 1, 1, 1, 1, -1, -1, -1, 1, -1, 1, -1, 1, 1, 1, 1, 1, -1, -1, 1, 1, 1, -1, 1, 1, 1, 1, -1, 1, -1, 1, 1, 1, 1, -1, 1, 1, 1, 1, 1, 1, -1, 1, 1, 1, 1, -1, 1, 1, 1, -1, 1, -1, -1, 1, -1, -1, 1, -1, 1, 1, 1, -1, 1, -1, 1, 1, 1, 1, 1, -1, 1, -1, 1, -1, 1, -1, -1, 1, -1, 1, 1, -1, 1, 1, 1, -1, 1, -1, -1, 1, 1, -1, 1, 1, -1, 1, 1, -1, 1, 1, -1, 1, 1, 1, 1, 1, 1, -1, 1, 1, 1, -1, -1, -1, 1, -1, 1, 1, -1, -1, 1, -1, -1, -1, -1, 1, 1, 1, 1, 1, -1, -1, 1, 1, 1, 1, 1, 1, 1, 1, 1, 1, -1, -1, 1, -1, 1, 1, -1, -1, 1, 1, 1, 1, -1, -1, 1, 1, 1, -1, -1, 1, 1, -1, 1, 1, -1, -1, 1, 1, 1, -1, 1, -1, 1, 1, 1, 1, -1, -1, 1, -1, 1, -1, 1, -1, 1, 1, 1, 1, -1, 1, -1, 1, -1, 1, -1, 1, 1, 1, 1, 1, -1, -1, 1, -1, -1, -1, -1, -1, 1, 1, 1, 1, -1, 1, -1, -1, -1, -1, 1, -1, 1, 1, 1, -1, -1, 1, -1, -1, -1, 1, -1, -1, 1, 1, 1, -1, 1, -1, -1, -1, -1, -1, 1, -1, 1, 1, 1, -1, -1, 1, -1, -1, -1, 1, 1, -1, 1, 1, 1, 1, -1, -1, 1, -1, 1, 1, 1, -1, 1, -1, 1, 1, -1, 1, -1, -1, 1, 1, 1, -1, 1, 1, -1, -1, -1, 1, 1, -1, -1, 1, 1, -1, -1, 1, -1, 1, -1, 1, 1, -1, 1, -1, 1, -1, 1, -1, -1, 1, -1, -1, 1, -1, -1, 1, 1, -1, -1, 1, -1, 1, 1, 1, 1, -1, -1, -1, 1, -1, -1, -1, -1, 1, -1, 1, -1, -1, 1, 1, 1, -1, 1, -1, 1, -1, -1, 1, -1, -1, -1, 1, 1, -1, -1, -1, -1, -1, -1, 1, -1, -1, 1, -1, 1, -1, 1, 1, -1, 1, -1, 1, -1, -1, 1, -1, -1, -1, 1, -1, -1, -1, 1, 1, -1, -1, 1, -1, -1, -1, 1, 1, -1, 1, 1, 1, 1, -1, 1, -1, 1, -1, 1, 1, -1, 1, -1, -1, 1, -1, -1, -1, -1, -1, 1, -1, -1, 1, -1, 1, 1, -1, 1, 1, -1, -1, 1, -1, -1, -1, -1, -1, 1, -1, 1, -1, -1, -1, 1, 1, -1, 1, 1, -1, 1, -1, 1, -1, -1, -1, -1, 1, -1, 1, 1, -1, 1, -1, -1, -1, 1, -1, -1, 1, 1, -1, -1, 1, 1, -1, -1, 1, -1, -1, 1, 1, 1, 1, -1, -1, 1, -1, -1, -1, -1, -1, 1, 1, 1, 1, 1, -1, 1, -1, 1, -1, -1, 1, 1, -1, 1, -1, 1, 1, 1, -1, 1, -1, -1, -1, 1, -1, 1, -1, -1, 1, -1, 1, -1, -1, 1, 1, 1, -1, 1, -1, -1, 1, -1, -1, 1, -1, -1, 1, 1, 1, 1, -1, 1, 1, -1, 1, 1, -1, -1, -1, 1, -1, -1, -1, 1, 1, -1, 1, 1, -1, -1, -1, 1, 1, -1, -1, -1, 1, -1, 1, 1, -1, -1, -1, 1, 1, -1, -1, -1, 1, -1, 1, 1, 1, -1, -1, -1, 1, -1, -1, 1, 1, -1, -1, 1, -1, -1, 1, -1, 1, -1, 1, -1, 1, -1, 1, 1, -1, -1, -1, -1, 1, -1, -1, 1, 1, 1, -1, 1, 1, -1, -1, -1, 1, 1, 1, -1, -1, 1, 1, -1, 1, 1, 1, 1, 1, 1, -1, 1, 1, 1, 1, 1, -1, -1, 1, -1, 1, 1, 1, -1, 1, -1, 1, 1, 1, 1, 1, 1, 1, 1, 1, 1, -1, 1, 1, 1, -1, -1, 1, 1, -1, 1, 1, 1, 1, 1, 1, -1, -1, 1, 1, 1, 1, -1, -1, -1, 1, 1, 1, -1, 1, -1, 1, -1, 1, 1, 1, 1, 1, -1, 1, 1, 1, 1, 1, 1, 1, 1, 1, 1, 1, 1, 1, -1, -1, 1, 1, 1, -1, 1, 1, 1, -1, 1, 1, 1, -1, 1, 1, 1, 1, 1, 1, -1, 1, 1, -1, -1, 1, -1, 1, 1, 1, -1, 1, 1, 1, 1, 1, 1, -1, 1, 1, 1, 1, 1, 1, -1, 1, 1, -1, 1, -1, -1, 1, -1, 1, -1, -1, -1, 1, -1, 1, -1, -1, 1, 1, -1, 1, 1, 1, 1, 1, -1, -1, -1, -1, 1, -1, 1, -1, 1, 1, 1, 1, -1, -1, 1, -1, 1, -1, 1, -1, 1, -1, 1, 1, -1, -1, 1, -1, 1, -1, 1, -1, 1, 1, 1, 1, -1, 1, -1, -1, 1, -1, 1, -1, 1, -1, 1, 1, -1, -1, -1, -1, 1, -1, -1, 1, 1, 1, 1, -1, -1, -1, 1, -1, 1, -1, -1, 1, 1, -1, 1, 1, -1, -1, -1, -1, 1, -1, -1, 1, 1, 1, 1, 1, -1, -1, -1, -1, -1, -1, -1, 1, 1, -1, -1, 1, -1, -1, -1, -1, 1, -1, -1, -1, 1, 1, -1, 1, -1, -1, -1, 1, -1, -1, -1, -1, 1, -1, 1, 1, 1, -1, -1, -1, -1, 1, -1, -1, 1, -1, 1, 1, -1, -1, 1, -1, -1, -1, -1, -1, 1, -1, 1, -1, -1, -1, -1, 1, -1, -1, 1, -1, 1, -1, -1, 1, -1, -1, -1, -1, 1, 1, -1, -1, 1, -1, 1, 1, -1, -1, -1, -1, 1, -1, -1, 1, -1, -1, 1, 1, -1, -1, -1, -1, 1, 1, -1, 1, 1, -1, 1, -1, 1, 1, -1, -1, 1, -1, -1, 1, 1, -1, 1, -1, -1, -1, -1, -1, 1, -1, -1, 1, -1, -1, 1, 1, -1, 1, -1, -1, 1, 1, -1, -1, 1, 1, 1, -1, 1, -1, 1, -1, 1, 1, -1, -1, -1, -1, 1, 1, -1, -1, -1, -1, -1, 1, 1, 1, -1, -1, 1, 1, -1, -1, -1, -1, 1, 1, 1, -1, 1, 1, -1, 1, -1, -1, -1, -1, 1, 1, 1, 1, -1, 1, 1, -1, -1, -1, -1, 1, 1, 1, -1, 1, -1, 1, 1, -1, -1, -1, -1, 1, 1, 1, 1, 1, -1, 1, 1, -1, -1, -1, -1, -1, 1, 1, 1, -1, 1, 1, -1, -1, -1, -1, -1, 1, 1, 1, 1, -1, 1, 1, -1, 1, -1, -1, -1, 1, 1, 1, 1, 1, 1, 1, -1, 1, -1, -1, -1, 1, 1, 1, 1, 1, -1, 1, 1, -1, -1, -1, 1, -1, 1, 1, -1, 1, -1, 1, -1, -1, 1, -1, -1, 1, 1, 1, 1, 1, -1, 1, -1, -1, -1, -1, 1, 1, 1, 1, 1, -1, -1, 1, -1, 1, -1, -1, 1, -1, 1, 1, 1, -1, 1, -1, 1, -1, 1, -1, 1, -1, 1, -1, 1, -1, -1, -1, -1, 1, -1, 1, 1, 1, -1, 1, 1, -1, 1, -1, 1, 1, -1, 1, 1, 1, 1, -1, 1, -1, 1, -1, -1, 1, -1, 1, -1, 1, 1, 1, -1, 1, -1, -1, -1, 1, -1, 1, -1, -1, 1, 1, 1, -1, 1, -1, 1, 1, -1, -1, 1, -1, 1, -1, 1, -1, -1, -1, -1, 1, 1, -1, -1, -1, 1, -1, 1, -1, 1, 1, -1, 1, -1, 1, -1, 1, 1, -1, -1, -1, 1, -1, -1, 1, -1, -1, 1, 1, 1, -1, 1, 1, -1, -1, -1, 1, -1, 1, -1, 1, -1, -1, 1, -1, 1, 1, -1, 1, 1, -1, -1, 1, 1, -1, 1, -1, 1, -1, -1, 1, -1, -1, -1, 1, -1, 1, 1, -1, -1, -1, 1, -1, 1, -1, -1, 1, 1, 1, -1, -1, 1, -1, 1, 1, 1, -1, -1, 1, 1, -1, -1, -1, -1, -1, -1, 1, 1, -1, 1, 1, 1, -1, -1, 1, -1, -1, -1, 1, -1, -1, 1, -1, 1, -1, -1, -1, -1, 1, 1, 1, 1, -1, 1, 1, 1, -1, -1, 1, 1, 1, -1, 1, -1, -1, 1, -1, 1, -1, -1, -1, 1, 1, -1, 1, 1, -1, 1, -1, 1, -1, -1, -1, -1, -1, -1, 1, 1, -1, 1, 1, 1, 1, -1, -1, -1, 1, 1, -1, 1, 1, 1, -1, 1, 1, -1, -1, 1, -1, 1, -1, 1, 1, 1, -1, 1, -1, 1, -1, 1, 1, -1, 1, 1, -1, 1, -1, 1, -1, 1, -1, -1, 1, 1, -1, 1, -1, 1, -1, 1, -1, 1, -1, -1, 1, -1, -1, 1, 1, 1, -1, 1, 1, 1, -1, -1, -1, -1, 1, -1, 1, 1, -1, -1, 1, -1, -1, -1, -1, 1, -1, 1, 1, -1, -1, 1, -1, 1, 1, -1, -1, -1, 1, 1, 1, -1, 1, 1, -1, 1, 1, -1, 1, -1, 1, 1, -1, -1, 1, -1, 1, -1, 1, 1, 1, -1, -1, 1, 1, -1, 1, 1, 1, -1, 1, -1, -1, -1, 1, 1, 1, -1, 1, 1, 1, -1, 1, -1, -1, -1, 1, 1, 1, -1, 1, 1, 1, -1, 1, -1, -1, 1, -1, 1, 1, -1, 1, 1, 1, -1, 1, -1, -1, -1, -1, 1, 1, -1, 1, 1, 1, 1, 1, 1, -1, 1, 1, -1, -1, 1, 1, 1, 1, 1, 1, -1, -1, -1, -1, 1, 1, -1, 1, 1, 1, -1, 1, -1, -1, -1, 1, 1, -1, 1, -1, 1, 1, 1, 1, 1, -1, 1, -1, 1, -1, 1, 1, 1, -1, 1, 1, -1, -1, -1, -1, 1, 1, 1, 1, 1, 1, 1, 1, -1, -1, 1, 1, -1, 1, -1, 1, 1, -1, 1, 1, -1, -1, 1, -1, -1, 1, 1, 1, 1, -1, 1, -1, -1, -1, 1, -1, -1, 1, 1, 1, 1, 1, -1, 1, -1, -1, 1, 1, -1, -1, 1, 1, 1, -1, 1, 1, 1, -1, 1, -1, -1, 1, 1, 1, 1, -1, 1, 1, -1, -1, -1, -1, -1, -1, 1, 1, 1, -1, 1, 1, -1, -1, -1, -1, -1, -1, 1, 1, 1, -1, -1, 1, 1, -1, 1, 1, -1, -1, 1, 1, 1, -1, -1, 1, -1, -1, -1, -1, -1, -1, 1, 1, 1, 1, -1, 1, 1, -1, -1, -1, -1, -1, -1, 1, 1, -1, 1, 1, -1, 1, -1, -1, -1, -1, -1, 1, -1, -1, 1, 1, -1, -1, 1, -1, -1, -1, 1, 1, 1, -1, 1, 1, -1, -1, -1, -1, 1, -1, 1, -1, 1, -1, 1, 1, -1, -1, -1, -1, 1, -1, -1, 1, -1, -1, 1, 1, 1, -1, -1, 1, -1, -1, 1, -1, 1, -1, 1, 1, -1, -1, 1, -1, 1, -1, -1, -1, 1, -1, 1, 1, -1, -1, -1, -1, -1, -1, -1, -1, 1, -1, 1, -1, -1, -1, -1, 1, -1, -1, -1, -1, 1, -1, 1, 1, 1, -1, -1, -1, -1, 1, -1, -1, 1, 1, 1, 1, -1, 1, -1, 1, -1, -1, -1, 1, 1, -1, -1, 1, -1, -1, -1, -1, -1, 1, -1, -1, 1, 1, -1, -1, -1, 1, 1, -1, 1, 1, -1, 1, -1, 1, -1, -1, -1, -1, -1, 1, 1, -1, -1, 1, -1, 1, 1, 1, -1, 1, -1, 1, 1, -1, -1, -1, 1, -1, 1, -1, -1, -1, 1, 1, -1, -1, -1, -1, 1, 1, 1, -1, -1, -1, 1, 1, 1, -1, 1, -1, 1, -1, 1, -1, -1, -1, 1, -1, -1, -1, -1, -1, 1, 1, 1, -1, 1, -1, -1, 1, -1, -1, 1, -1, -1, 1, 1, 1, -1, -1, 1, 1, -1, -1, -1, 1, 1, -1, 1, -1, -1, -1, -1, 1, -1, -1, 1, -1, 1, 1, 1, -1, -1, -1, -1, 1, 1, -1, 1, 1, -1, -1, 1, -1, -1, 1, 1, 1, -1, 1, -1, 1, -1, 1, 1, 1, -1, -1, -1, 1, -1, -1, -1, 1, -1, 1, -1, 1, -1, 1, -1, 1, -1, -1, -1, 1, -1, 1, 1, -1, -1, 1, -1, 1, -1, 1, -1, 1, -1, 1, -1, -1, -1, -1, 1, -1, 1, -1, 1, 1, -1, -1, 1, -1, 1, -1, 1, -1, -1, -1, 1, -1, -1, 1, -1, -1, -1, 1, -1, 1, -1, -1, 1, 1, -1, -1, 1, -1, 1, -1, -1, 1, -1, -1, 1, 1, -1, -1, 1, -1, -1, 1, 1, 1, -1, -1, 1, 1, -1, 1, -1, -1, -1, 1, -1, 1, -1, -1, 1, 1, 1, 1, 1, 1, -1, 1, -1, 1, -1, -1, -1, -1, 1, -1, -1, -1, -1, 1, -1, 1, 1, -1, -1, 1, 1, 1, -1, -1, 1, 1, 1, 1, 1, -1, -1, 1, -1, -1, -1, 1, -1, 1, 1, -1, 1, -1, -1, -1, -1, -1, 1, -1, 1, -1, 1, -1, 1, -1, 1, -1, 1, -1, -1, 1, 1, 1, 1, -1, 1, 1, -1, -1, 1, 1, -1, 1, -1, 1, -1, 1, -1, -1, -1, 1, -1, -1, 1, 1, 1, 1, -1, 1, 1, -1, -1, -1, 1, -1, -1, 1, -1, -1, 1, -1, 1, -1, 1, -1, 1, -1, 1, 1, 1, 1, -1, 1, 1, -1, 1, -1, 1, -1, -1, 1, 1, -1, 1, -1, 1, -1, 1, -1, 1, 1, -1, 1, 1, -1, 1, 1, 1, -1, 1, -1, -1, -1, 1, 1, 1, -1, 1, 1, 1, -1, 1, -1, 1, -1, 1, 1, 1, 1, 1, -1, 1, -1, 1, -1, 1, -1, 1, 1, 1, -1, 1, 1, 1, -1, 1, -1, -1, -1, 1, 1, -1, 1, 1, 1, -1, 1, 1, 1, -1, 1, 1, 1, -1, -1, 1, 1, -1, -1, 1, -1, 1, -1, -1, 1, 1, 1, 1, 1, 1, 1, 1, -1
BQP_DATA, 3447, 16006, -7716.000000, -10978.000000, -21724.000000, -24986.000000, 4096.041337, 5633, 1826
